c "random instance"
p edges 150 1069
e 1 10
e 1 26
e 1 38
e 1 56
e 1 68
e 1 69
e 1 72
e 1 85
e 1 92
e 1 98
e 1 99
e 1 107
e 1 113
e 1 125
e 2 10
e 2 20
e 2 37
e 2 42
e 2 63
e 2 78
e 2 89
e 2 94
e 2 99
e 2 103
e 2 106
e 2 110
e 2 119
e 2 131
e 2 137
e 2 141
e 2 145
e 2 147
e 2 149
e 3 6
e 3 13
e 3 19
e 3 29
e 3 41
e 3 45
e 3 59
e 3 64
e 3 75
e 3 82
e 3 99
e 3 104
e 3 111
e 3 128
e 3 136
e 4 10
e 4 12
e 4 46
e 4 47
e 4 53
e 4 69
e 4 75
e 4 81
e 4 113
e 4 116
e 4 122
e 4 128
e 4 130
e 4 131
e 4 139
e 5 23
e 5 38
e 5 40
e 5 50
e 5 51
e 5 55
e 5 57
e 5 58
e 5 60
e 5 61
e 5 71
e 5 76
e 5 82
e 5 92
e 5 101
e 5 105
e 5 110
e 5 117
e 5 119
e 5 123
e 5 130
e 6 43
e 6 44
e 6 55
e 6 68
e 6 74
e 6 78
e 6 84
e 6 88
e 6 106
e 6 109
e 6 112
e 6 116
e 6 121
e 6 129
e 6 134
e 6 135
e 7 19
e 7 21
e 7 25
e 7 33
e 7 43
e 7 58
e 7 86
e 7 91
e 7 100
e 7 102
e 7 124
e 7 127
e 7 129
e 7 143
e 7 145
e 8 15
e 8 28
e 8 37
e 8 44
e 8 46
e 8 60
e 8 62
e 8 72
e 8 97
e 8 99
e 8 104
e 8 106
e 8 121
e 8 124
e 8 150
e 9 11
e 9 13
e 9 25
e 9 46
e 9 56
e 9 72
e 9 76
e 9 79
e 9 90
e 9 95
e 9 99
e 9 105
e 9 108
e 9 112
e 9 114
e 9 118
e 9 120
e 9 125
e 9 138
e 10 18
e 10 45
e 10 51
e 10 56
e 10 61
e 10 73
e 10 78
e 10 80
e 10 84
e 10 92
e 10 100
e 10 103
e 10 107
e 10 109
e 10 114
e 10 118
e 10 139
e 10 145
e 10 147
e 11 28
e 11 30
e 11 35
e 11 64
e 11 66
e 11 72
e 11 76
e 11 81
e 11 87
e 11 93
e 11 96
e 11 101
e 11 105
e 11 106
e 11 111
e 11 122
e 11 127
e 11 136
e 11 142
e 11 143
e 11 148
e 12 16
e 12 26
e 12 40
e 12 45
e 12 47
e 12 67
e 12 111
e 12 124
e 12 125
e 12 135
e 12 148
e 12 150
e 13 22
e 13 59
e 13 65
e 13 67
e 13 72
e 13 83
e 13 98
e 13 101
e 13 105
e 13 109
e 13 127
e 13 129
e 13 130
e 13 143
e 14 21
e 14 23
e 14 24
e 14 35
e 14 36
e 14 55
e 14 58
e 14 61
e 14 101
e 14 107
e 14 109
e 14 116
e 14 135
e 15 18
e 15 40
e 15 42
e 15 57
e 15 74
e 15 132
e 15 142
e 16 24
e 16 72
e 16 74
e 16 88
e 16 89
e 16 102
e 16 105
e 16 124
e 16 133
e 16 148
e 17 22
e 17 27
e 17 49
e 17 55
e 17 84
e 17 85
e 17 86
e 17 90
e 17 114
e 17 118
e 17 124
e 17 146
e 17 148
e 18 24
e 18 29
e 18 36
e 18 41
e 18 48
e 18 52
e 18 53
e 18 54
e 18 61
e 18 62
e 18 70
e 18 75
e 18 80
e 18 102
e 18 105
e 18 135
e 19 21
e 19 31
e 19 47
e 19 63
e 19 79
e 19 80
e 19 90
e 19 98
e 19 106
e 19 116
e 19 118
e 19 134
e 19 147
e 19 149
e 19 150
e 20 36
e 20 51
e 20 52
e 20 57
e 20 61
e 20 74
e 20 83
e 20 134
e 20 148
e 20 150
e 21 37
e 21 42
e 21 50
e 21 59
e 21 65
e 21 71
e 21 88
e 21 100
e 21 113
e 21 115
e 21 135
e 22 23
e 22 25
e 22 47
e 22 48
e 22 53
e 22 58
e 22 61
e 22 65
e 22 77
e 22 80
e 22 83
e 22 93
e 22 99
e 22 138
e 22 146
e 22 149
e 23 24
e 23 25
e 23 37
e 23 54
e 23 58
e 23 65
e 23 67
e 23 75
e 23 77
e 23 85
e 23 86
e 23 99
e 23 116
e 23 122
e 23 134
e 23 137
e 24 56
e 24 61
e 24 77
e 24 85
e 24 111
e 24 112
e 24 114
e 24 127
e 24 134
e 24 146
e 25 26
e 25 48
e 25 64
e 25 71
e 25 89
e 25 90
e 25 93
e 25 110
e 25 112
e 25 127
e 25 138
e 25 143
e 26 37
e 26 41
e 26 79
e 26 100
e 26 108
e 26 114
e 26 122
e 26 131
e 27 30
e 27 31
e 27 54
e 27 55
e 27 58
e 27 72
e 27 75
e 27 117
e 27 120
e 27 139
e 27 140
e 27 145
e 27 150
e 28 30
e 28 34
e 28 54
e 28 73
e 28 99
e 28 114
e 28 130
e 28 132
e 28 136
e 28 141
e 29 31
e 29 32
e 29 34
e 29 36
e 29 37
e 29 71
e 29 73
e 29 92
e 29 114
e 29 117
e 29 135
e 29 147
e 30 37
e 30 44
e 30 52
e 30 59
e 30 60
e 30 84
e 30 101
e 30 118
e 30 132
e 30 138
e 30 139
e 31 45
e 31 57
e 31 63
e 31 84
e 31 85
e 31 92
e 31 95
e 31 109
e 31 112
e 31 125
e 31 142
e 31 143
e 31 147
e 32 36
e 32 48
e 32 57
e 32 59
e 32 60
e 32 98
e 32 110
e 32 131
e 32 133
e 32 139
e 32 146
e 33 34
e 33 40
e 33 42
e 33 48
e 33 52
e 33 68
e 33 71
e 33 83
e 33 101
e 33 127
e 33 129
e 33 138
e 33 143
e 34 51
e 34 56
e 34 68
e 34 79
e 34 107
e 34 113
e 34 120
e 34 129
e 35 41
e 35 47
e 35 60
e 35 62
e 35 64
e 35 65
e 35 67
e 35 80
e 35 82
e 35 99
e 35 116
e 35 128
e 36 41
e 36 47
e 36 48
e 36 49
e 36 57
e 36 74
e 36 75
e 36 108
e 36 114
e 36 128
e 36 131
e 36 132
e 36 138
e 37 46
e 37 60
e 37 83
e 37 111
e 37 112
e 37 118
e 37 119
e 37 126
e 37 128
e 37 140
e 38 52
e 38 68
e 38 70
e 38 74
e 38 83
e 38 89
e 38 97
e 38 126
e 38 130
e 39 66
e 39 82
e 39 87
e 39 94
e 39 96
e 39 104
e 39 137
e 39 147
e 39 148
e 40 54
e 40 57
e 40 62
e 40 80
e 40 81
e 40 83
e 40 87
e 40 88
e 40 108
e 40 109
e 40 110
e 40 112
e 40 115
e 41 47
e 41 69
e 41 75
e 41 86
e 41 87
e 41 96
e 41 97
e 41 99
e 41 110
e 41 113
e 41 118
e 41 125
e 41 127
e 41 129
e 41 142
e 42 43
e 42 56
e 42 65
e 42 74
e 42 94
e 42 101
e 42 114
e 42 136
e 42 141
e 43 47
e 43 50
e 43 59
e 43 61
e 43 79
e 43 86
e 43 93
e 43 95
e 44 58
e 44 98
e 44 105
e 44 116
e 44 131
e 44 149
e 45 47
e 45 59
e 45 66
e 45 68
e 45 82
e 45 90
e 45 91
e 45 93
e 45 111
e 45 113
e 46 67
e 46 77
e 46 90
e 46 104
e 46 122
e 46 129
e 46 133
e 46 143
e 46 149
e 47 53
e 47 56
e 47 58
e 47 65
e 47 70
e 47 84
e 47 106
e 47 116
e 47 117
e 47 123
e 47 127
e 47 130
e 48 63
e 48 64
e 48 73
e 48 77
e 48 82
e 48 90
e 48 111
e 48 127
e 48 134
e 48 138
e 49 76
e 49 80
e 49 93
e 49 106
e 49 115
e 49 116
e 49 136
e 49 141
e 50 65
e 50 67
e 50 121
e 50 144
e 51 55
e 51 64
e 51 70
e 51 95
e 51 112
e 51 113
e 51 119
e 51 150
e 52 61
e 52 74
e 52 77
e 52 79
e 52 99
e 52 105
e 52 120
e 52 122
e 52 144
e 53 56
e 53 59
e 53 70
e 53 74
e 53 75
e 53 97
e 53 102
e 53 107
e 53 116
e 53 126
e 53 138
e 53 150
e 54 56
e 54 62
e 54 63
e 54 69
e 54 78
e 54 82
e 54 87
e 54 88
e 54 100
e 54 116
e 54 131
e 55 68
e 55 73
e 55 83
e 55 125
e 55 129
e 55 141
e 56 70
e 56 72
e 56 95
e 56 102
e 56 122
e 56 125
e 56 130
e 56 131
e 56 133
e 56 135
e 57 61
e 57 77
e 57 83
e 57 94
e 57 111
e 57 112
e 57 113
e 57 130
e 57 132
e 57 137
e 57 144
e 58 60
e 58 93
e 58 102
e 58 130
e 58 138
e 58 139
e 58 140
e 58 147
e 59 89
e 59 92
e 59 96
e 59 101
e 59 102
e 59 114
e 60 72
e 60 77
e 60 83
e 60 92
e 60 98
e 60 117
e 60 130
e 60 136
e 60 140
e 60 141
e 60 146
e 60 149
e 61 83
e 61 90
e 61 99
e 61 115
e 61 118
e 61 122
e 61 123
e 61 139
e 61 143
e 61 144
e 62 68
e 62 76
e 62 81
e 62 94
e 62 100
e 62 102
e 62 121
e 62 133
e 62 142
e 63 81
e 63 84
e 63 87
e 63 91
e 63 132
e 63 142
e 64 92
e 64 94
e 64 107
e 64 126
e 64 145
e 64 146
e 64 150
e 65 80
e 65 93
e 65 97
e 65 105
e 65 113
e 65 124
e 65 142
e 65 143
e 66 73
e 66 75
e 66 81
e 66 116
e 66 132
e 66 136
e 67 120
e 67 122
e 67 129
e 67 149
e 68 73
e 68 92
e 68 93
e 68 96
e 68 98
e 68 100
e 68 102
e 68 103
e 68 107
e 68 108
e 68 110
e 68 138
e 68 141
e 68 148
e 68 150
e 69 71
e 69 77
e 69 104
e 69 111
e 69 145
e 70 80
e 70 89
e 70 92
e 70 96
e 70 102
e 70 110
e 70 129
e 70 134
e 70 138
e 71 85
e 71 98
e 71 101
e 71 117
e 71 140
e 72 75
e 72 78
e 72 92
e 72 97
e 72 108
e 72 120
e 72 122
e 72 125
e 73 80
e 73 100
e 73 132
e 73 143
e 73 150
e 74 78
e 74 95
e 74 142
e 75 76
e 75 116
e 75 126
e 75 128
e 75 129
e 75 137
e 75 147
e 76 79
e 76 86
e 76 117
e 76 134
e 76 140
e 76 144
e 77 84
e 77 102
e 77 131
e 77 132
e 78 80
e 78 105
e 78 114
e 78 123
e 78 145
e 79 86
e 79 104
e 79 107
e 79 117
e 79 123
e 79 125
e 79 129
e 79 138
e 79 144
e 79 146
e 80 87
e 80 90
e 80 98
e 80 105
e 80 127
e 80 140
e 81 87
e 81 97
e 81 113
e 81 129
e 81 142
e 81 147
e 82 91
e 82 93
e 82 109
e 82 114
e 82 128
e 82 141
e 82 142
e 82 143
e 82 145
e 82 150
e 83 99
e 83 110
e 83 113
e 83 116
e 83 141
e 83 147
e 84 99
e 84 117
e 84 120
e 84 123
e 84 145
e 84 147
e 85 103
e 85 105
e 85 113
e 85 118
e 85 145
e 86 94
e 86 120
e 86 132
e 86 136
e 86 143
e 86 148
e 87 89
e 87 93
e 87 97
e 87 106
e 87 122
e 87 123
e 87 130
e 88 92
e 88 97
e 88 132
e 88 142
e 89 96
e 89 105
e 89 111
e 89 124
e 89 143
e 89 148
e 89 149
e 90 93
e 90 108
e 90 112
e 90 116
e 90 136
e 91 124
e 91 129
e 91 132
e 92 139
e 92 140
e 92 142
e 92 145
e 93 98
e 93 100
e 93 122
e 93 140
e 93 143
e 93 146
e 94 110
e 94 111
e 94 112
e 94 115
e 94 126
e 94 145
e 94 149
e 95 100
e 95 118
e 95 119
e 95 143
e 96 101
e 96 109
e 96 123
e 96 124
e 96 130
e 96 149
e 97 109
e 97 116
e 97 118
e 97 130
e 97 139
e 97 140
e 97 146
e 98 101
e 98 110
e 98 111
e 98 121
e 98 122
e 99 109
e 100 101
e 100 106
e 100 140
e 100 141
e 101 132
e 101 141
e 101 147
e 101 149
e 102 109
e 102 125
e 102 146
e 102 147
e 103 107
e 103 109
e 103 116
e 103 129
e 103 136
e 103 138
e 103 144
e 104 112
e 104 122
e 104 133
e 105 111
e 105 121
e 105 127
e 105 130
e 106 111
e 106 113
e 106 123
e 106 138
e 106 146
e 108 110
e 108 111
e 108 127
e 108 142
e 109 110
e 109 115
e 109 117
e 109 119
e 109 130
e 109 145
e 110 118
e 110 119
e 110 126
e 110 129
e 110 138
e 110 139
e 111 114
e 111 118
e 111 119
e 111 141
e 112 118
e 113 122
e 113 123
e 114 128
e 115 131
e 115 133
e 115 138
e 116 118
e 117 122
e 117 126
e 117 128
e 117 132
e 117 145
e 118 120
e 118 136
e 118 140
e 119 127
e 119 130
e 119 140
e 119 143
e 119 146
e 120 130
e 120 145
e 121 129
e 121 137
e 122 130
e 122 143
e 122 148
e 123 132
e 124 133
e 124 135
e 125 134
e 125 138
e 125 147
e 126 132
e 126 149
e 127 128
e 127 131
e 127 148
e 128 144
e 128 145
e 128 146
e 129 135
e 129 147
e 130 134
e 131 133
e 132 135
e 132 149
e 135 140
e 135 142
e 136 137
e 136 138
e 136 142
e 136 144
e 137 138
e 137 140
e 140 148
e 141 143
e 141 144
e 142 148
e 145 146
e 148 149
